ilp_joint/output/decomposition_ilp.lp
Maximize
  0.0098406832197334 Z_206_1_0 + 0.1257607181829626 Z_206_1_1
   + 0.0266249258916059 Z_206_1_2 + 0.0443664488920491 Z_206_1_3
   + 0.442588099547884 Z_206_2_0 + 0.0513381418967103 Z_206_2_1
   + 0.012734915943562 Z_206_2_2 + 0.1094920864223574 Z_206_2_3
   + 0.00120105681157372 Z_206_0_0 + 0.022808771169077 Z_206_0_1
   + 0.7985661319536768 Z_206_0_2 + 0.0291034127252938 Z_206_0_3
   + 3.6309737685875644e-04 Z_460_0_0 + 0.00911769565978895 Z_460_0_1
   + 0.0421865242105332 Z_460_0_2 + 0.0389353946254312 Z_460_0_3
   + 0.0123508941528012 Z_460_2_0 + 0.0141509852757246 Z_460_2_1
   + 0.00524541622221908 Z_460_2_2 + 0.1368115973979808 Z_460_2_3
   + 0.0268562047785342 Z_460_1_0 + 0.0233460353862556 Z_460_1_1
   + 0.0110853720882508 Z_460_1_2 + 0.252334758403947 Z_460_1_3
   + 0.010716129154525 Z_460_3_0 + 0.0878163508036962 Z_460_3_1
   + 0.0163796798736909 Z_460_3_2 + 0.5341643729518971 Z_460_3_3
   + 0.010716129154525 Z_460_4_0 + 0.0878163508036962 Z_460_4_1
   + 0.0163796798736909 Z_460_4_2 + 0.5341643729518971 Z_460_4_3
   + 0.0116877957237034 Z_259_0_0 + 0.078263978898717 Z_259_0_1
   + 0.00479341467429273 Z_259_0_2 + 0.5076220199242848 Z_259_0_3
   + 0.00250585824856614 Z_316_0_0 + 0.0130250320433859 Z_316_0_1
   + 0.0482018954652013 Z_316_0_2 + 0.2580674490858321 Z_316_0_3
   + 0.00346875670459142 Z_361_0_0 + 0.0902889968409084 Z_361_0_1
   + 0.00562146420993075 Z_361_0_2 + 0.6315658598646909 Z_361_0_3
   + 0.00316159064233297 Z_85_1_0 + 0.00219792190714603 Z_85_1_1
   + 0.8755079910020332 Z_85_1_2 + 0.0227579358863892 Z_85_1_3
   + 0.0147734432724722 Z_85_0_0 + 0.0830318285014148 Z_85_0_1
   + 0.00468202721457199 Z_85_0_2 + 0.7676266463303111 Z_85_0_3
   + 0.00616625237914761 Z_654_0_0 + 0.00903742130941261 Z_654_0_1
   + 0.7519458423209096 Z_654_0_2 + 0.0174308666772106 Z_654_0_3 + [
   0.1678727165319958 Z_206_1_0 * Z_460_1_0
   + 0.0662891977705367 Z_206_1_0 * Z_259_0_0
   + 0.0603776282723576 Z_206_1_0 * Z_316_0_0
   + 0.0603776282723576 Z_206_1_0 * Z_361_0_0
   + 0.1190289749795865 Z_206_1_0 * Z_85_0_0
   + 0.1678727165319958 Z_206_1_1 * Z_460_1_1
   + 0.0662891977705367 Z_206_1_1 * Z_259_0_1
   + 0.0603776282723576 Z_206_1_1 * Z_316_0_1
   + 0.0603776282723576 Z_206_1_1 * Z_361_0_1
   + 0.1190289749795865 Z_206_1_1 * Z_85_0_1
   + 0.1678727165319958 Z_206_1_2 * Z_460_1_2
   + 0.0662891977705367 Z_206_1_2 * Z_259_0_2
   + 0.0603776282723576 Z_206_1_2 * Z_316_0_2
   + 0.0603776282723576 Z_206_1_2 * Z_361_0_2
   + 0.1190289749795865 Z_206_1_2 * Z_85_0_2
   + 0.1678727165319958 Z_206_1_3 * Z_460_1_3
   + 0.0662891977705367 Z_206_1_3 * Z_259_0_3
   + 0.0603776282723576 Z_206_1_3 * Z_316_0_3
   + 0.0603776282723576 Z_206_1_3 * Z_361_0_3
   + 0.1190289749795865 Z_206_1_3 * Z_85_0_3
   + 0.00487247261553327 Z_206_2_0 * Z_460_1_0
   + 0.0143191031966692 Z_206_2_0 * Z_259_0_0
   + 0.2245909858408023 Z_206_2_0 * Z_316_0_0
   + 0.1754090141591976 Z_206_2_0 * Z_361_0_0
   + 0.1754090141591976 Z_206_2_0 * Z_85_0_0
   + 0.00487247261553327 Z_206_2_1 * Z_460_1_1
   + 0.0143191031966692 Z_206_2_1 * Z_259_0_1
   + 0.2245909858408023 Z_206_2_1 * Z_316_0_1
   + 0.1754090141591976 Z_206_2_1 * Z_361_0_1
   + 0.1754090141591976 Z_206_2_1 * Z_85_0_1
   + 0.00487247261553327 Z_206_2_2 * Z_460_1_2
   + 0.0143191031966692 Z_206_2_2 * Z_259_0_2
   + 0.2245909858408023 Z_206_2_2 * Z_316_0_2
   + 0.1754090141591976 Z_206_2_2 * Z_361_0_2
   + 0.1754090141591976 Z_206_2_2 * Z_85_0_2
   + 0.00487247261553327 Z_206_2_3 * Z_460_1_3
   + 0.0143191031966692 Z_206_2_3 * Z_259_0_3
   + 0.2245909858408023 Z_206_2_3 * Z_316_0_3
   + 0.1754090141591976 Z_206_2_3 * Z_361_0_3
   + 0.1754090141591976 Z_206_2_3 * Z_85_0_3
   + 0.00204081632653061 Z_206_0_0 * Z_460_0_0
   + 0.1678727165319958 Z_206_0_0 * Z_460_1_0
   + 0.0334830188936123 Z_206_0_0 * Z_259_0_0
   + 0.1804096463233179 Z_206_0_0 * Z_316_0_0
   + 0.077184214354369 Z_206_0_0 * Z_361_0_0 + 0.4 Z_206_0_0 * Z_85_1_0
   + 0.0827753133532066 Z_206_0_0 * Z_85_0_0
   + 4.1743970315398878e-04 Z_206_0_0 * Z_654_0_0
   + 0.00204081632653061 Z_206_0_1 * Z_460_0_1
   + 0.1678727165319958 Z_206_0_1 * Z_460_1_1
   + 0.0334830188936123 Z_206_0_1 * Z_259_0_1
   + 0.1804096463233179 Z_206_0_1 * Z_316_0_1
   + 0.077184214354369 Z_206_0_1 * Z_361_0_1 + 0.4 Z_206_0_1 * Z_85_1_1
   + 0.0827753133532066 Z_206_0_1 * Z_85_0_1
   + 4.1743970315398878e-04 Z_206_0_1 * Z_654_0_1
   + 0.00204081632653061 Z_206_0_2 * Z_460_0_2
   + 0.1678727165319958 Z_206_0_2 * Z_460_1_2
   + 0.0334830188936123 Z_206_0_2 * Z_259_0_2
   + 0.1804096463233179 Z_206_0_2 * Z_316_0_2
   + 0.077184214354369 Z_206_0_2 * Z_361_0_2 + 0.4 Z_206_0_2 * Z_85_1_2
   + 0.0827753133532066 Z_206_0_2 * Z_85_0_2
   + 4.1743970315398878e-04 Z_206_0_2 * Z_654_0_2
   + 0.00204081632653061 Z_206_0_3 * Z_460_0_3
   + 0.1678727165319958 Z_206_0_3 * Z_460_1_3
   + 0.0334830188936123 Z_206_0_3 * Z_259_0_3
   + 0.1804096463233179 Z_206_0_3 * Z_316_0_3
   + 0.077184214354369 Z_206_0_3 * Z_361_0_3 + 0.4 Z_206_0_3 * Z_85_1_3
   + 0.0827753133532066 Z_206_0_3 * Z_85_0_3
   + 4.1743970315398878e-04 Z_206_0_3 * Z_654_0_3
   + 0.0112931057843708 Z_460_2_0 * Z_259_0_0
   + 3.48104e-05 Z_460_2_0 * Z_316_0_0
   + 0.00395777749926537 Z_460_2_0 * Z_361_0_0
   + 0.0112931057843708 Z_460_2_1 * Z_259_0_1
   + 3.48104e-05 Z_460_2_1 * Z_316_0_1
   + 0.00395777749926537 Z_460_2_1 * Z_361_0_1
   + 0.0112931057843708 Z_460_2_2 * Z_259_0_2
   + 3.48104e-05 Z_460_2_2 * Z_316_0_2
   + 0.00395777749926537 Z_460_2_2 * Z_361_0_2
   + 0.0112931057843708 Z_460_2_3 * Z_259_0_3
   + 3.48104e-05 Z_460_2_3 * Z_316_0_3
   + 0.00395777749926537 Z_460_2_3 * Z_361_0_3
   + 0.0297804147688501 Z_460_1_0 * Z_316_0_0
   + 0.00199268786419611 Z_460_1_0 * Z_85_0_0
   + 0.0297804147688501 Z_460_1_1 * Z_316_0_1
   + 0.00199268786419611 Z_460_1_1 * Z_85_0_1
   + 0.0297804147688501 Z_460_1_2 * Z_316_0_2
   + 0.00199268786419611 Z_460_1_2 * Z_85_0_2
   + 0.0297804147688501 Z_460_1_3 * Z_316_0_3
   + 0.00199268786419611 Z_460_1_3 * Z_85_0_3
   + 0.0112931057843708 Z_460_3_0 * Z_259_0_0
   + 2.05537e-05 Z_460_3_0 * Z_316_0_0
   + 0.023653095542051 Z_460_3_0 * Z_361_0_0
   + 6.5904e-05 Z_460_3_0 * Z_85_0_0
   + 0.0112931057843708 Z_460_3_1 * Z_259_0_1
   + 2.05537e-05 Z_460_3_1 * Z_316_0_1
   + 0.023653095542051 Z_460_3_1 * Z_361_0_1
   + 6.5904e-05 Z_460_3_1 * Z_85_0_1
   + 0.0112931057843708 Z_460_3_2 * Z_259_0_2
   + 2.05537e-05 Z_460_3_2 * Z_316_0_2
   + 0.023653095542051 Z_460_3_2 * Z_361_0_2
   + 6.5904e-05 Z_460_3_2 * Z_85_0_2
   + 0.0112931057843708 Z_460_3_3 * Z_259_0_3
   + 2.05537e-05 Z_460_3_3 * Z_316_0_3
   + 0.023653095542051 Z_460_3_3 * Z_361_0_3
   + 6.5904e-05 Z_460_3_3 * Z_85_0_3
   + 0.0112931057843708 Z_460_4_0 * Z_259_0_0
   + 2.05537e-05 Z_460_4_0 * Z_316_0_0
   + 0.023653095542051 Z_460_4_0 * Z_361_0_0
   + 6.5904e-05 Z_460_4_0 * Z_85_0_0
   + 0.0112931057843708 Z_460_4_1 * Z_259_0_1
   + 2.05537e-05 Z_460_4_1 * Z_316_0_1
   + 0.023653095542051 Z_460_4_1 * Z_361_0_1
   + 6.5904e-05 Z_460_4_1 * Z_85_0_1
   + 0.0112931057843708 Z_460_4_2 * Z_259_0_2
   + 2.05537e-05 Z_460_4_2 * Z_316_0_2
   + 0.023653095542051 Z_460_4_2 * Z_361_0_2
   + 6.5904e-05 Z_460_4_2 * Z_85_0_2
   + 0.0112931057843708 Z_460_4_3 * Z_259_0_3
   + 2.05537e-05 Z_460_4_3 * Z_316_0_3
   + 0.023653095542051 Z_460_4_3 * Z_361_0_3
   + 6.5904e-05 Z_460_4_3 * Z_85_0_3
   + 0.1106785441252287 Z_259_0_0 * Z_316_0_0
   + 0.2080066036920525 Z_259_0_0 * Z_361_0_0
   + 1.4939e-06 Z_259_0_0 * Z_85_1_0
   + 0.1341996787895216 Z_259_0_0 * Z_85_0_0
   + 0.1106785441252287 Z_259_0_1 * Z_316_0_1
   + 0.2080066036920525 Z_259_0_1 * Z_361_0_1
   + 1.4939e-06 Z_259_0_1 * Z_85_1_1
   + 0.1341996787895216 Z_259_0_1 * Z_85_0_1
   + 0.1106785441252287 Z_259_0_2 * Z_316_0_2
   + 0.2080066036920525 Z_259_0_2 * Z_361_0_2
   + 1.4939e-06 Z_259_0_2 * Z_85_1_2
   + 0.1341996787895216 Z_259_0_2 * Z_85_0_2
   + 0.1106785441252287 Z_259_0_3 * Z_316_0_3
   + 0.2080066036920525 Z_259_0_3 * Z_361_0_3
   + 1.4939e-06 Z_259_0_3 * Z_85_1_3
   + 0.1341996787895216 Z_259_0_3 * Z_85_0_3
   + 0.055547998006756 Z_316_0_0 * Z_361_0_0
   + 0.055547998006756 Z_316_0_0 * Z_85_0_0
   + 0.055547998006756 Z_316_0_1 * Z_361_0_1
   + 0.055547998006756 Z_316_0_1 * Z_85_0_1
   + 0.055547998006756 Z_316_0_2 * Z_361_0_2
   + 0.055547998006756 Z_316_0_2 * Z_85_0_2
   + 0.055547998006756 Z_316_0_3 * Z_361_0_3
   + 0.055547998006756 Z_316_0_3 * Z_85_0_3
   + 5.23552e-07 Z_361_0_0 * Z_85_1_0
   + 0.1190289749795865 Z_361_0_0 * Z_85_0_0
   + 5.23552e-07 Z_361_0_1 * Z_85_1_1
   + 0.1190289749795865 Z_361_0_1 * Z_85_0_1
   + 5.23552e-07 Z_361_0_2 * Z_85_1_2
   + 0.1190289749795865 Z_361_0_2 * Z_85_0_2
   + 5.23552e-07 Z_361_0_3 * Z_85_1_3
   + 0.1190289749795865 Z_361_0_3 * Z_85_0_3
   + 4.1743970315398878e-04 Z_85_1_0 * Z_654_0_0
   + 4.1743970315398878e-04 Z_85_1_1 * Z_654_0_1
   + 4.1743970315398878e-04 Z_85_1_2 * Z_654_0_2
   + 4.1743970315398878e-04 Z_85_1_3 * Z_654_0_3 ] / 2 
Subject To
 constraint1_2061: Z_206_1_0 + Z_206_1_1 + Z_206_1_2 + Z_206_1_3 <= 1
 constraint1_2062: Z_206_2_0 + Z_206_2_1 + Z_206_2_2 + Z_206_2_3 <= 1
 constraint1_2060: Z_206_0_0 + Z_206_0_1 + Z_206_0_2 + Z_206_0_3 <= 1
 constraint1_4600: Z_460_0_0 + Z_460_0_1 + Z_460_0_2 + Z_460_0_3 <= 1
 constraint1_4602: Z_460_2_0 + Z_460_2_1 + Z_460_2_2 + Z_460_2_3 <= 1
 constraint1_4601: Z_460_1_0 + Z_460_1_1 + Z_460_1_2 + Z_460_1_3 <= 1
 constraint1_4603: Z_460_3_0 + Z_460_3_1 + Z_460_3_2 + Z_460_3_3 <= 1
 constraint1_4604: Z_460_4_0 + Z_460_4_1 + Z_460_4_2 + Z_460_4_3 <= 1
 constraint1_2590: Z_259_0_0 + Z_259_0_1 + Z_259_0_2 + Z_259_0_3 <= 1
 constraint1_3160: Z_316_0_0 + Z_316_0_1 + Z_316_0_2 + Z_316_0_3 <= 1
 constraint1_3610: Z_361_0_0 + Z_361_0_1 + Z_361_0_2 + Z_361_0_3 <= 1
 constraint1_851: Z_85_1_0 + Z_85_1_1 + Z_85_1_2 + Z_85_1_3 <= 1
 constraint1_850: Z_85_0_0 + Z_85_0_1 + Z_85_0_2 + Z_85_0_3 <= 1
 constraint1_6540: Z_654_0_0 + Z_654_0_1 + Z_654_0_2 + Z_654_0_3 <= 1
 constraint2_2060: Z_206_1_0 + Z_206_2_0 + Z_206_0_0 <= 1
 constraint2_2061: Z_206_1_1 + Z_206_2_1 + Z_206_0_1 <= 1
 constraint2_2062: Z_206_1_2 + Z_206_2_2 + Z_206_0_2 <= 1
 constraint2_2063: Z_206_1_3 + Z_206_2_3 + Z_206_0_3 <= 1
 constraint2_4600: Z_460_0_0 + Z_460_2_0 + Z_460_1_0 + Z_460_3_0
   + Z_460_4_0 <= 1
 constraint2_4601: Z_460_0_1 + Z_460_2_1 + Z_460_1_1 + Z_460_3_1
   + Z_460_4_1 <= 1
 constraint2_4602: Z_460_0_2 + Z_460_2_2 + Z_460_1_2 + Z_460_3_2
   + Z_460_4_2 <= 1
 constraint2_4603: Z_460_0_3 + Z_460_2_3 + Z_460_1_3 + Z_460_3_3
   + Z_460_4_3 <= 1
 constraint2_2590: Z_259_0_0 <= 1
 constraint2_2591: Z_259_0_1 <= 1
 constraint2_2592: Z_259_0_2 <= 1
 constraint2_2593: Z_259_0_3 <= 1
 constraint2_3160: Z_316_0_0 <= 1
 constraint2_3161: Z_316_0_1 <= 1
 constraint2_3162: Z_316_0_2 <= 1
 constraint2_3163: Z_316_0_3 <= 1
 constraint2_3610: Z_361_0_0 <= 1
 constraint2_3611: Z_361_0_1 <= 1
 constraint2_3612: Z_361_0_2 <= 1
 constraint2_3613: Z_361_0_3 <= 1
 constraint2_850: Z_85_1_0 + Z_85_0_0 <= 1
 constraint2_851: Z_85_1_1 + Z_85_0_1 <= 1
 constraint2_852: Z_85_1_2 + Z_85_0_2 <= 1
 constraint2_853: Z_85_1_3 + Z_85_0_3 <= 1
 constraint2_6540: Z_654_0_0 <= 1
 constraint2_6541: Z_654_0_1 <= 1
 constraint2_6542: Z_654_0_2 <= 1
 constraint2_6543: Z_654_0_3 <= 1
Bounds
Binaries
 Z_206_1_0 Z_206_1_1 Z_206_1_2 Z_206_1_3 Z_206_2_0 Z_206_2_1 Z_206_2_2
 Z_206_2_3 Z_206_0_0 Z_206_0_1 Z_206_0_2 Z_206_0_3 Z_460_0_0 Z_460_0_1
 Z_460_0_2 Z_460_0_3 Z_460_2_0 Z_460_2_1 Z_460_2_2 Z_460_2_3 Z_460_1_0
 Z_460_1_1 Z_460_1_2 Z_460_1_3 Z_460_3_0 Z_460_3_1 Z_460_3_2 Z_460_3_3
 Z_460_4_0 Z_460_4_1 Z_460_4_2 Z_460_4_3 Z_259_0_0 Z_259_0_1 Z_259_0_2
 Z_259_0_3 Z_316_0_0 Z_316_0_1 Z_316_0_2 Z_316_0_3 Z_361_0_0 Z_361_0_1
 Z_361_0_2 Z_361_0_3 Z_85_1_0 Z_85_1_1 Z_85_1_2 Z_85_1_3 Z_85_0_0 Z_85_0_1
 Z_85_0_2 Z_85_0_3 Z_654_0_0 Z_654_0_1 Z_654_0_2 Z_654_0_3
End
