ilp_joint/output/decomposition_ilp.mps
NAME decomposition_srl_ilp
* Max problem is converted into Min one
ROWS
 N  OBJ
 L  constraint1_2061
 L  constraint1_2062
 L  constraint1_2060
 L  constraint1_4600
 L  constraint1_4602
 L  constraint1_4601
 L  constraint1_4603
 L  constraint1_4604
 L  constraint1_2590
 L  constraint1_3160
 L  constraint1_3610
 L  constraint1_851
 L  constraint1_850
 L  constraint1_6540
 L  constraint2_2060
 L  constraint2_2061
 L  constraint2_2062
 L  constraint2_2063
 L  constraint2_4600
 L  constraint2_4601
 L  constraint2_4602
 L  constraint2_4603
 L  constraint2_2590
 L  constraint2_2591
 L  constraint2_2592
 L  constraint2_2593
 L  constraint2_3160
 L  constraint2_3161
 L  constraint2_3162
 L  constraint2_3163
 L  constraint2_3610
 L  constraint2_3611
 L  constraint2_3612
 L  constraint2_3613
 L  constraint2_850
 L  constraint2_851
 L  constraint2_852
 L  constraint2_853
 L  constraint2_6540
 L  constraint2_6541
 L  constraint2_6542
 L  constraint2_6543
COLUMNS
    MARKER    'MARKER'                 'INTORG'
    Z_206_1_0  OBJ       -9.8406832197334045e-03
    Z_206_1_0  constraint1_2061  1
    Z_206_1_0  constraint2_2060  1
    Z_206_1_1  OBJ       -1.2576071818296264e-01
    Z_206_1_1  constraint1_2061  1
    Z_206_1_1  constraint2_2061  1
    Z_206_1_2  OBJ       -2.6624925891605946e-02
    Z_206_1_2  constraint1_2061  1
    Z_206_1_2  constraint2_2062  1
    Z_206_1_3  OBJ       -4.4366448892049076e-02
    Z_206_1_3  constraint1_2061  1
    Z_206_1_3  constraint2_2063  1
    Z_206_2_0  OBJ       -4.4258809954788397e-01
    Z_206_2_0  constraint1_2062  1
    Z_206_2_0  constraint2_2060  1
    Z_206_2_1  OBJ       -5.1338141896710279e-02
    Z_206_2_1  constraint1_2062  1
    Z_206_2_1  constraint2_2061  1
    Z_206_2_2  OBJ       -1.2734915943561987e-02
    Z_206_2_2  constraint1_2062  1
    Z_206_2_2  constraint2_2062  1
    Z_206_2_3  OBJ       -1.0949208642235744e-01
    Z_206_2_3  constraint1_2062  1
    Z_206_2_3  constraint2_2063  1
    Z_206_0_0  OBJ       -1.2010568115737197e-03
    Z_206_0_0  constraint1_2060  1
    Z_206_0_0  constraint2_2060  1
    Z_206_0_1  OBJ       -2.2808771169077036e-02
    Z_206_0_1  constraint1_2060  1
    Z_206_0_1  constraint2_2061  1
    Z_206_0_2  OBJ       -7.9856613195367676e-01
    Z_206_0_2  constraint1_2060  1
    Z_206_0_2  constraint2_2062  1
    Z_206_0_3  OBJ       -2.9103412725293834e-02
    Z_206_0_3  constraint1_2060  1
    Z_206_0_3  constraint2_2063  1
    Z_460_0_0  OBJ       -3.6309737685875644e-04
    Z_460_0_0  constraint1_4600  1
    Z_460_0_0  constraint2_4600  1
    Z_460_0_1  OBJ       -9.1176956597889495e-03
    Z_460_0_1  constraint1_4600  1
    Z_460_0_1  constraint2_4601  1
    Z_460_0_2  OBJ       -4.2186524210533170e-02
    Z_460_0_2  constraint1_4600  1
    Z_460_0_2  constraint2_4602  1
    Z_460_0_3  OBJ       -3.8935394625431205e-02
    Z_460_0_3  constraint1_4600  1
    Z_460_0_3  constraint2_4603  1
    Z_460_2_0  OBJ       -1.2350894152801174e-02
    Z_460_2_0  constraint1_4602  1
    Z_460_2_0  constraint2_4600  1
    Z_460_2_1  OBJ       -1.4150985275724582e-02
    Z_460_2_1  constraint1_4602  1
    Z_460_2_1  constraint2_4601  1
    Z_460_2_2  OBJ       -5.2454162222190792e-03
    Z_460_2_2  constraint1_4602  1
    Z_460_2_2  constraint2_4602  1
    Z_460_2_3  OBJ       -1.3681159739798077e-01
    Z_460_2_3  constraint1_4602  1
    Z_460_2_3  constraint2_4603  1
    Z_460_1_0  OBJ       -2.6856204778534211e-02
    Z_460_1_0  constraint1_4601  1
    Z_460_1_0  constraint2_4600  1
    Z_460_1_1  OBJ       -2.3346035386255595e-02
    Z_460_1_1  constraint1_4601  1
    Z_460_1_1  constraint2_4601  1
    Z_460_1_2  OBJ       -1.1085372088250790e-02
    Z_460_1_2  constraint1_4601  1
    Z_460_1_2  constraint2_4602  1
    Z_460_1_3  OBJ       -2.5233475840394698e-01
    Z_460_1_3  constraint1_4601  1
    Z_460_1_3  constraint2_4603  1
    Z_460_3_0  OBJ       -1.0716129154525035e-02
    Z_460_3_0  constraint1_4603  1
    Z_460_3_0  constraint2_4600  1
    Z_460_3_1  OBJ       -8.7816350803696250e-02
    Z_460_3_1  constraint1_4603  1
    Z_460_3_1  constraint2_4601  1
    Z_460_3_2  OBJ       -1.6379679873690933e-02
    Z_460_3_2  constraint1_4603  1
    Z_460_3_2  constraint2_4602  1
    Z_460_3_3  OBJ       -5.3416437295189712e-01
    Z_460_3_3  constraint1_4603  1
    Z_460_3_3  constraint2_4603  1
    Z_460_4_0  OBJ       -1.0716129154525035e-02
    Z_460_4_0  constraint1_4604  1
    Z_460_4_0  constraint2_4600  1
    Z_460_4_1  OBJ       -8.7816350803696250e-02
    Z_460_4_1  constraint1_4604  1
    Z_460_4_1  constraint2_4601  1
    Z_460_4_2  OBJ       -1.6379679873690933e-02
    Z_460_4_2  constraint1_4604  1
    Z_460_4_2  constraint2_4602  1
    Z_460_4_3  OBJ       -5.3416437295189712e-01
    Z_460_4_3  constraint1_4604  1
    Z_460_4_3  constraint2_4603  1
    Z_259_0_0  OBJ       -1.1687795723703353e-02
    Z_259_0_0  constraint1_2590  1
    Z_259_0_0  constraint2_2590  1
    Z_259_0_1  OBJ       -7.8263978898717015e-02
    Z_259_0_1  constraint1_2590  1
    Z_259_0_1  constraint2_2591  1
    Z_259_0_2  OBJ       -4.7934146742927286e-03
    Z_259_0_2  constraint1_2590  1
    Z_259_0_2  constraint2_2592  1
    Z_259_0_3  OBJ       -5.0762201992428480e-01
    Z_259_0_3  constraint1_2590  1
    Z_259_0_3  constraint2_2593  1
    Z_316_0_0  OBJ       -2.5058582485661396e-03
    Z_316_0_0  constraint1_3160  1
    Z_316_0_0  constraint2_3160  1
    Z_316_0_1  OBJ       -1.3025032043385943e-02
    Z_316_0_1  constraint1_3160  1
    Z_316_0_1  constraint2_3161  1
    Z_316_0_2  OBJ       -4.8201895465201317e-02
    Z_316_0_2  constraint1_3160  1
    Z_316_0_2  constraint2_3162  1
    Z_316_0_3  OBJ       -2.5806744908583207e-01
    Z_316_0_3  constraint1_3160  1
    Z_316_0_3  constraint2_3163  1
    Z_361_0_0  OBJ       -3.4687567045914246e-03
    Z_361_0_0  constraint1_3610  1
    Z_361_0_0  constraint2_3610  1
    Z_361_0_1  OBJ       -9.0288996840908395e-02
    Z_361_0_1  constraint1_3610  1
    Z_361_0_1  constraint2_3611  1
    Z_361_0_2  OBJ       -5.6214642099307486e-03
    Z_361_0_2  constraint1_3610  1
    Z_361_0_2  constraint2_3612  1
    Z_361_0_3  OBJ       -6.3156585986469094e-01
    Z_361_0_3  constraint1_3610  1
    Z_361_0_3  constraint2_3613  1
    Z_85_1_0  OBJ       -3.1615906423329678e-03
    Z_85_1_0  constraint1_851  1
    Z_85_1_0  constraint2_850  1
    Z_85_1_1  OBJ       -2.1979219071460278e-03
    Z_85_1_1  constraint1_851  1
    Z_85_1_1  constraint2_851  1
    Z_85_1_2  OBJ       -8.7550799100203325e-01
    Z_85_1_2  constraint1_851  1
    Z_85_1_2  constraint2_852  1
    Z_85_1_3  OBJ       -2.2757935886389215e-02
    Z_85_1_3  constraint1_851  1
    Z_85_1_3  constraint2_853  1
    Z_85_0_0  OBJ       -1.4773443272472186e-02
    Z_85_0_0  constraint1_850  1
    Z_85_0_0  constraint2_850  1
    Z_85_0_1  OBJ       -8.3031828501414759e-02
    Z_85_0_1  constraint1_850  1
    Z_85_0_1  constraint2_851  1
    Z_85_0_2  OBJ       -4.6820272145719930e-03
    Z_85_0_2  constraint1_850  1
    Z_85_0_2  constraint2_852  1
    Z_85_0_3  OBJ       -7.6762664633031108e-01
    Z_85_0_3  constraint1_850  1
    Z_85_0_3  constraint2_853  1
    Z_654_0_0  OBJ       -6.1662523791476079e-03
    Z_654_0_0  constraint1_6540  1
    Z_654_0_0  constraint2_6540  1
    Z_654_0_1  OBJ       -9.0374213094126087e-03
    Z_654_0_1  constraint1_6540  1
    Z_654_0_1  constraint2_6541  1
    Z_654_0_2  OBJ       -7.5194584232090955e-01
    Z_654_0_2  constraint1_6540  1
    Z_654_0_2  constraint2_6542  1
    Z_654_0_3  OBJ       -1.7430866677210600e-02
    Z_654_0_3  constraint1_6540  1
    Z_654_0_3  constraint2_6543  1
    MARKER    'MARKER'                 'INTEND'
RHS
    RHS1      constraint1_2061  1
    RHS1      constraint1_2062  1
    RHS1      constraint1_2060  1
    RHS1      constraint1_4600  1
    RHS1      constraint1_4602  1
    RHS1      constraint1_4601  1
    RHS1      constraint1_4603  1
    RHS1      constraint1_4604  1
    RHS1      constraint1_2590  1
    RHS1      constraint1_3160  1
    RHS1      constraint1_3610  1
    RHS1      constraint1_851  1
    RHS1      constraint1_850  1
    RHS1      constraint1_6540  1
    RHS1      constraint2_2060  1
    RHS1      constraint2_2061  1
    RHS1      constraint2_2062  1
    RHS1      constraint2_2063  1
    RHS1      constraint2_4600  1
    RHS1      constraint2_4601  1
    RHS1      constraint2_4602  1
    RHS1      constraint2_4603  1
    RHS1      constraint2_2590  1
    RHS1      constraint2_2591  1
    RHS1      constraint2_2592  1
    RHS1      constraint2_2593  1
    RHS1      constraint2_3160  1
    RHS1      constraint2_3161  1
    RHS1      constraint2_3162  1
    RHS1      constraint2_3163  1
    RHS1      constraint2_3610  1
    RHS1      constraint2_3611  1
    RHS1      constraint2_3612  1
    RHS1      constraint2_3613  1
    RHS1      constraint2_850  1
    RHS1      constraint2_851  1
    RHS1      constraint2_852  1
    RHS1      constraint2_853  1
    RHS1      constraint2_6540  1
    RHS1      constraint2_6541  1
    RHS1      constraint2_6542  1
    RHS1      constraint2_6543  1
BOUNDS
 UP BND1      Z_206_1_0  1
 UP BND1      Z_206_1_1  1
 UP BND1      Z_206_1_2  1
 UP BND1      Z_206_1_3  1
 UP BND1      Z_206_2_0  1
 UP BND1      Z_206_2_1  1
 UP BND1      Z_206_2_2  1
 UP BND1      Z_206_2_3  1
 UP BND1      Z_206_0_0  1
 UP BND1      Z_206_0_1  1
 UP BND1      Z_206_0_2  1
 UP BND1      Z_206_0_3  1
 UP BND1      Z_460_0_0  1
 UP BND1      Z_460_0_1  1
 UP BND1      Z_460_0_2  1
 UP BND1      Z_460_0_3  1
 UP BND1      Z_460_2_0  1
 UP BND1      Z_460_2_1  1
 UP BND1      Z_460_2_2  1
 UP BND1      Z_460_2_3  1
 UP BND1      Z_460_1_0  1
 UP BND1      Z_460_1_1  1
 UP BND1      Z_460_1_2  1
 UP BND1      Z_460_1_3  1
 UP BND1      Z_460_3_0  1
 UP BND1      Z_460_3_1  1
 UP BND1      Z_460_3_2  1
 UP BND1      Z_460_3_3  1
 UP BND1      Z_460_4_0  1
 UP BND1      Z_460_4_1  1
 UP BND1      Z_460_4_2  1
 UP BND1      Z_460_4_3  1
 UP BND1      Z_259_0_0  1
 UP BND1      Z_259_0_1  1
 UP BND1      Z_259_0_2  1
 UP BND1      Z_259_0_3  1
 UP BND1      Z_316_0_0  1
 UP BND1      Z_316_0_1  1
 UP BND1      Z_316_0_2  1
 UP BND1      Z_316_0_3  1
 UP BND1      Z_361_0_0  1
 UP BND1      Z_361_0_1  1
 UP BND1      Z_361_0_2  1
 UP BND1      Z_361_0_3  1
 UP BND1      Z_85_1_0  1
 UP BND1      Z_85_1_1  1
 UP BND1      Z_85_1_2  1
 UP BND1      Z_85_1_3  1
 UP BND1      Z_85_0_0  1
 UP BND1      Z_85_0_1  1
 UP BND1      Z_85_0_2  1
 UP BND1      Z_85_0_3  1
 UP BND1      Z_654_0_0  1
 UP BND1      Z_654_0_1  1
 UP BND1      Z_654_0_2  1
 UP BND1      Z_654_0_3  1
QUADOBJ
    Z_206_1_0  Z_460_1_0  -8.3936358265997921e-02
    Z_206_1_0  Z_259_0_0  -3.3144598885268370e-02
    Z_206_1_0  Z_316_0_0  -3.0188814136178813e-02
    Z_206_1_0  Z_361_0_0  -3.0188814136178813e-02
    Z_206_1_0  Z_85_0_0  -5.9514487489793239e-02
    Z_206_1_1  Z_460_1_1  -8.3936358265997921e-02
    Z_206_1_1  Z_259_0_1  -3.3144598885268370e-02
    Z_206_1_1  Z_316_0_1  -3.0188814136178813e-02
    Z_206_1_1  Z_361_0_1  -3.0188814136178813e-02
    Z_206_1_1  Z_85_0_1  -5.9514487489793239e-02
    Z_206_1_2  Z_460_1_2  -8.3936358265997921e-02
    Z_206_1_2  Z_259_0_2  -3.3144598885268370e-02
    Z_206_1_2  Z_316_0_2  -3.0188814136178813e-02
    Z_206_1_2  Z_361_0_2  -3.0188814136178813e-02
    Z_206_1_2  Z_85_0_2  -5.9514487489793239e-02
    Z_206_1_3  Z_460_1_3  -8.3936358265997921e-02
    Z_206_1_3  Z_259_0_3  -3.3144598885268370e-02
    Z_206_1_3  Z_316_0_3  -3.0188814136178813e-02
    Z_206_1_3  Z_361_0_3  -3.0188814136178813e-02
    Z_206_1_3  Z_85_0_3  -5.9514487489793239e-02
    Z_206_2_0  Z_460_1_0  -2.4362363077666330e-03
    Z_206_2_0  Z_259_0_0  -7.1595515983345947e-03
    Z_206_2_0  Z_316_0_0  -1.1229549292040117e-01
    Z_206_2_0  Z_361_0_0  -8.7704507079598787e-02
    Z_206_2_0  Z_85_0_0  -8.7704507079598787e-02
    Z_206_2_1  Z_460_1_1  -2.4362363077666330e-03
    Z_206_2_1  Z_259_0_1  -7.1595515983345947e-03
    Z_206_2_1  Z_316_0_1  -1.1229549292040117e-01
    Z_206_2_1  Z_361_0_1  -8.7704507079598787e-02
    Z_206_2_1  Z_85_0_1  -8.7704507079598787e-02
    Z_206_2_2  Z_460_1_2  -2.4362363077666330e-03
    Z_206_2_2  Z_259_0_2  -7.1595515983345947e-03
    Z_206_2_2  Z_316_0_2  -1.1229549292040117e-01
    Z_206_2_2  Z_361_0_2  -8.7704507079598787e-02
    Z_206_2_2  Z_85_0_2  -8.7704507079598787e-02
    Z_206_2_3  Z_460_1_3  -2.4362363077666330e-03
    Z_206_2_3  Z_259_0_3  -7.1595515983345947e-03
    Z_206_2_3  Z_316_0_3  -1.1229549292040117e-01
    Z_206_2_3  Z_361_0_3  -8.7704507079598787e-02
    Z_206_2_3  Z_85_0_3  -8.7704507079598787e-02
    Z_206_0_0  Z_460_0_0  -1.0204081632653058e-03
    Z_206_0_0  Z_460_1_0  -8.3936358265997921e-02
    Z_206_0_0  Z_259_0_0  -1.6741509446806139e-02
    Z_206_0_0  Z_316_0_0  -9.0204823161658967e-02
    Z_206_0_0  Z_361_0_0  -3.8592107177184490e-02
    Z_206_0_0  Z_85_1_0  -1.9999999999999996e-01
    Z_206_0_0  Z_85_0_0  -4.1387656676603289e-02
    Z_206_0_0  Z_654_0_0  -2.0871985157699439e-04
    Z_206_0_1  Z_460_0_1  -1.0204081632653058e-03
    Z_206_0_1  Z_460_1_1  -8.3936358265997921e-02
    Z_206_0_1  Z_259_0_1  -1.6741509446806139e-02
    Z_206_0_1  Z_316_0_1  -9.0204823161658967e-02
    Z_206_0_1  Z_361_0_1  -3.8592107177184490e-02
    Z_206_0_1  Z_85_1_1  -1.9999999999999996e-01
    Z_206_0_1  Z_85_0_1  -4.1387656676603289e-02
    Z_206_0_1  Z_654_0_1  -2.0871985157699439e-04
    Z_206_0_2  Z_460_0_2  -1.0204081632653058e-03
    Z_206_0_2  Z_460_1_2  -8.3936358265997921e-02
    Z_206_0_2  Z_259_0_2  -1.6741509446806139e-02
    Z_206_0_2  Z_316_0_2  -9.0204823161658967e-02
    Z_206_0_2  Z_361_0_2  -3.8592107177184490e-02
    Z_206_0_2  Z_85_1_2  -1.9999999999999996e-01
    Z_206_0_2  Z_85_0_2  -4.1387656676603289e-02
    Z_206_0_2  Z_654_0_2  -2.0871985157699439e-04
    Z_206_0_3  Z_460_0_3  -1.0204081632653058e-03
    Z_206_0_3  Z_460_1_3  -8.3936358265997921e-02
    Z_206_0_3  Z_259_0_3  -1.6741509446806139e-02
    Z_206_0_3  Z_316_0_3  -9.0204823161658967e-02
    Z_206_0_3  Z_361_0_3  -3.8592107177184490e-02
    Z_206_0_3  Z_85_1_3  -1.9999999999999996e-01
    Z_206_0_3  Z_85_0_3  -4.1387656676603289e-02
    Z_206_0_3  Z_654_0_3  -2.0871985157699439e-04
    Z_460_2_0  Z_259_0_0  -5.6465528921853941e-03
    Z_460_2_0  Z_316_0_0  -1.7405203179463746e-05
    Z_460_2_0  Z_361_0_0  -1.9788887496326826e-03
    Z_460_2_1  Z_259_0_1  -5.6465528921853941e-03
    Z_460_2_1  Z_316_0_1  -1.7405203179463746e-05
    Z_460_2_1  Z_361_0_1  -1.9788887496326826e-03
    Z_460_2_2  Z_259_0_2  -5.6465528921853941e-03
    Z_460_2_2  Z_316_0_2  -1.7405203179463746e-05
    Z_460_2_2  Z_361_0_2  -1.9788887496326826e-03
    Z_460_2_3  Z_259_0_3  -5.6465528921853941e-03
    Z_460_2_3  Z_316_0_3  -1.7405203179463746e-05
    Z_460_2_3  Z_361_0_3  -1.9788887496326826e-03
    Z_460_1_0  Z_316_0_0  -1.4890207384425043e-02
    Z_460_1_0  Z_85_0_0  -9.9634393209805717e-04
    Z_460_1_1  Z_316_0_1  -1.4890207384425043e-02
    Z_460_1_1  Z_85_0_1  -9.9634393209805717e-04
    Z_460_1_2  Z_316_0_2  -1.4890207384425043e-02
    Z_460_1_2  Z_85_0_2  -9.9634393209805717e-04
    Z_460_1_3  Z_316_0_3  -1.4890207384425043e-02
    Z_460_1_3  Z_85_0_3  -9.9634393209805717e-04
    Z_460_3_0  Z_259_0_0  -5.6465528921853941e-03
    Z_460_3_0  Z_316_0_0  -1.0276842320142956e-05
    Z_460_3_0  Z_361_0_0  -1.1826547771025502e-02
    Z_460_3_0  Z_85_0_0  -3.2951989873329880e-05
    Z_460_3_1  Z_259_0_1  -5.6465528921853941e-03
    Z_460_3_1  Z_316_0_1  -1.0276842320142956e-05
    Z_460_3_1  Z_361_0_1  -1.1826547771025502e-02
    Z_460_3_1  Z_85_0_1  -3.2951989873329880e-05
    Z_460_3_2  Z_259_0_2  -5.6465528921853941e-03
    Z_460_3_2  Z_316_0_2  -1.0276842320142956e-05
    Z_460_3_2  Z_361_0_2  -1.1826547771025502e-02
    Z_460_3_2  Z_85_0_2  -3.2951989873329880e-05
    Z_460_3_3  Z_259_0_3  -5.6465528921853941e-03
    Z_460_3_3  Z_316_0_3  -1.0276842320142956e-05
    Z_460_3_3  Z_361_0_3  -1.1826547771025502e-02
    Z_460_3_3  Z_85_0_3  -3.2951989873329880e-05
    Z_460_4_0  Z_259_0_0  -5.6465528921853941e-03
    Z_460_4_0  Z_316_0_0  -1.0276842320142956e-05
    Z_460_4_0  Z_361_0_0  -1.1826547771025502e-02
    Z_460_4_0  Z_85_0_0  -3.2951989873329880e-05
    Z_460_4_1  Z_259_0_1  -5.6465528921853941e-03
    Z_460_4_1  Z_316_0_1  -1.0276842320142956e-05
    Z_460_4_1  Z_361_0_1  -1.1826547771025502e-02
    Z_460_4_1  Z_85_0_1  -3.2951989873329880e-05
    Z_460_4_2  Z_259_0_2  -5.6465528921853941e-03
    Z_460_4_2  Z_316_0_2  -1.0276842320142956e-05
    Z_460_4_2  Z_361_0_2  -1.1826547771025502e-02
    Z_460_4_2  Z_85_0_2  -3.2951989873329880e-05
    Z_460_4_3  Z_259_0_3  -5.6465528921853941e-03
    Z_460_4_3  Z_316_0_3  -1.0276842320142956e-05
    Z_460_4_3  Z_361_0_3  -1.1826547771025502e-02
    Z_460_4_3  Z_85_0_3  -3.2951989873329880e-05
    Z_259_0_0  Z_316_0_0  -5.5339272062614374e-02
    Z_259_0_0  Z_361_0_0  -1.0400330184602627e-01
    Z_259_0_0  Z_85_1_0  -7.4695040226806695e-07
    Z_259_0_0  Z_85_0_0  -6.7099839394760788e-02
    Z_259_0_1  Z_316_0_1  -5.5339272062614374e-02
    Z_259_0_1  Z_361_0_1  -1.0400330184602627e-01
    Z_259_0_1  Z_85_1_1  -7.4695040226806695e-07
    Z_259_0_1  Z_85_0_1  -6.7099839394760788e-02
    Z_259_0_2  Z_316_0_2  -5.5339272062614374e-02
    Z_259_0_2  Z_361_0_2  -1.0400330184602627e-01
    Z_259_0_2  Z_85_1_2  -7.4695040226806695e-07
    Z_259_0_2  Z_85_0_2  -6.7099839394760788e-02
    Z_259_0_3  Z_316_0_3  -5.5339272062614374e-02
    Z_259_0_3  Z_361_0_3  -1.0400330184602627e-01
    Z_259_0_3  Z_85_1_3  -7.4695040226806695e-07
    Z_259_0_3  Z_85_0_3  -6.7099839394760788e-02
    Z_316_0_0  Z_361_0_0  -2.7773999003378007e-02
    Z_316_0_0  Z_85_0_0  -2.7773999003378007e-02
    Z_316_0_1  Z_361_0_1  -2.7773999003378007e-02
    Z_316_0_1  Z_85_0_1  -2.7773999003378007e-02
    Z_316_0_2  Z_361_0_2  -2.7773999003378007e-02
    Z_316_0_2  Z_85_0_2  -2.7773999003378007e-02
    Z_316_0_3  Z_361_0_3  -2.7773999003378007e-02
    Z_316_0_3  Z_85_0_3  -2.7773999003378007e-02
    Z_361_0_0  Z_85_1_0  -2.6177595000085093e-07
    Z_361_0_0  Z_85_0_0  -5.9514487489793239e-02
    Z_361_0_1  Z_85_1_1  -2.6177595000085093e-07
    Z_361_0_1  Z_85_0_1  -5.9514487489793239e-02
    Z_361_0_2  Z_85_1_2  -2.6177595000085093e-07
    Z_361_0_2  Z_85_0_2  -5.9514487489793239e-02
    Z_361_0_3  Z_85_1_3  -2.6177595000085093e-07
    Z_361_0_3  Z_85_0_3  -5.9514487489793239e-02
    Z_85_1_0  Z_654_0_0  -2.0871985157699439e-04
    Z_85_1_1  Z_654_0_1  -2.0871985157699439e-04
    Z_85_1_2  Z_654_0_2  -2.0871985157699439e-04
    Z_85_1_3  Z_654_0_3  -2.0871985157699439e-04
ENDATA
