ilp_joint/output/decomposition_ilp.sol
# Solution for model decomposition_srl_ilp
# Objective value = 1.3148990261174562e+01
Z_483_0_0 0
Z_483_0_1 0
Z_483_0_2 1
Z_483_0_3 0
Z_483_0_4 0
Z_483_1_0 0
Z_483_1_1 0
Z_483_1_2 0
Z_483_1_3 0
Z_483_1_4 1
Z_483_2_0 1
Z_483_2_1 0
Z_483_2_2 0
Z_483_2_3 0
Z_483_2_4 0
Z_389_0_0 0
Z_389_0_1 0
Z_389_0_2 0
Z_389_0_3 0
Z_389_0_4 1
Z_643_3_0 0
Z_643_3_1 0
Z_643_3_2 0
Z_643_3_3 0
Z_643_3_4 1
Z_643_4_0 0
Z_643_4_1 0
Z_643_4_2 0
Z_643_4_3 1
Z_643_4_4 0
Z_643_1_0 0
Z_643_1_1 0
Z_643_1_2 0
Z_643_1_3 0
Z_643_1_4 1
Z_643_2_0 0
Z_643_2_1 0
Z_643_2_2 0
Z_643_2_3 0
Z_643_2_4 1
Z_643_0_0 0
Z_643_0_1 0
Z_643_0_2 0
Z_643_0_3 0
Z_643_0_4 1
Z_62_0_0 0
Z_62_0_1 0
Z_62_0_2 0
Z_62_0_3 1
Z_62_0_4 0
Z_512_0_0 0
Z_512_0_1 0
Z_512_0_2 0
Z_512_0_3 0
Z_512_0_4 1
Z_551_0_0 0
Z_551_0_1 0
Z_551_0_2 0
Z_551_0_3 0
Z_551_0_4 1
Z_748_0_0 0
Z_748_0_1 0
Z_748_0_2 0
Z_748_0_3 0
Z_748_0_4 1
Z_748_6_0 0
Z_748_6_1 0
Z_748_6_2 1
Z_748_6_3 0
Z_748_6_4 0
Z_748_1_0 0
Z_748_1_1 0
Z_748_1_2 0
Z_748_1_3 1
Z_748_1_4 0
Z_579_0_0 0
Z_579_0_1 0
Z_579_0_2 0
Z_579_0_3 1
Z_579_0_4 0
Z_414_1_0 0
Z_414_1_1 0
Z_414_1_2 1
Z_414_1_3 0
Z_414_1_4 0
Z_414_0_0 0
Z_414_0_1 0
Z_414_0_2 0
Z_414_0_3 1
Z_414_0_4 0
Z_299_0_0 0
Z_299_0_1 0
Z_299_0_2 0
Z_299_0_3 1
Z_299_0_4 0
Z_750_0_0 0
Z_750_0_1 0
Z_750_0_2 1
Z_750_0_3 0
Z_750_0_4 0
